
 102   30
  10   10   10   10   10   10   10   10   10   10   10   10   10   10   10   10   10   10   10   10   10   10   10   10   10   10   10   10   10   10

   0   0   0   0   0   0   0   0   0   0   0   0   0   0   0   0   0   0   0   0   0   0   0   0   0   0   0   0   0   0   0  30 2 3 4 5 6 7 8 9 10 11 12 13 14 15 16 17 18 19 20 21 23 27 28 29 31 32 33 35 51 53 
  10   0   0   0   0   0   0   0   0   0   1   0   0   0   0   0   0   0   0   0   0   0   0   3   1   0   0   1   0   0   0  19 101 98 96 75 74 65 58 57 56 55 54 52 50 48 47 42 40 37 26 
   3   0   0   2   0   0   0   0   0   0   0   2   0   0   0   0   3   0   0   0   0   0   0   0   0   2   0   0   0   0   0  15 98 72 68 59 58 57 56 52 48 43 42 41 39 37 30 
   7   0   0   0   0   0   0   0   4   0   0   0   0   0   2   0   0   0   0   2   0   0   1   0   0   0   0   0   0   0   0  16 101 98 97 95 73 65 64 62 60 57 56 50 48 46 42 24 
   3   0   0   0   0   1   0   0   0   0   0   0   0   0   0   0   0   0   0   0   0   0   0   0   0   0   0   0   0   0   0  13 97 73 65 60 57 56 54 48 47 46 41 38 24 
   6   0   0   0   0   0   0   0   0   0   0   0   0   0   0   0   0   0   0   0   0   1   0   0   0   0   0   0   0   0   0  18 101 100 99 97 94 93 90 74 71 65 60 58 57 54 50 47 41 38 
   9   0   0   0   0   0   0   0   0   0   0   0   0   0   0   0   0   0   0   0   0   0   0   0   0   5   1   0   0   7   0  11 101 100 97 68 62 60 57 56 38 37 22 
   4   1   0   0   0   8   0   0   0   0   0   4   0   0   0   0   0   0   1   0   0   0   0   0   0   2   0   0   0   0   6  15 101 98 95 91 74 73 69 66 58 55 52 50 47 45 25 
   1   0   0   0   0   0   0   0   0   0   0   0   0   0   0   0   0   1   0   0   0   0   0   0   0   0   0   0   1   0   0  19 101 98 97 96 90 88 75 72 69 68 66 65 64 57 56 49 48 45 34 
   1   0   2   0   0   0   0   0   0   0   0   0   0   0   0   0   0   8   9   0   0   6   0   0   0   0   0   6   0   0   4  15 93 87 75 74 73 70 65 64 62 58 57 55 46 42 38 
  10   0   0   0   0  10   0   0   0   0   0   0   1   0   0   0   5   3   0   0   0   0   0   0   0   0   0   0   0   0   0  13 101 98 96 93 75 74 70 57 55 54 52 50 26 
  10   0   0   0   0   0   0   0   0   0   0   0   0   0   0   0   0   0   0   0   0   6   0  10   0   0   0   0   0   1   0  12 100 99 97 70 68 62 57 52 50 46 38 34 
   6   0   0   0   3   0   0   0   0   0   0   0   0   0   0   0   0   6   0   0   0   0   0   0   0   0   6   0  10   0   0  11 97 75 73 63 58 54 50 48 41 40 38 
   3   0   0   0   8   0   0   0   0   2   0   0   0   1   0   0   0   0   0   0   0   0   0   0  10   0   0   0   0   0   0  15 101 99 96 94 93 90 89 73 71 70 62 60 55 47 38 
   3   0   7   0   0   0   0   0   0   0   0   0   0   0   0   0   0   0   0   0   0   0   0   0   6   0   5   7   0   0   0  14 100 99 97 96 92 87 74 71 64 62 55 54 46 38 
   7   0   0   0   0   0   0   0   0   0   0   0   0   0   0   0  10   0   0   0   0   0   0   0   0   0   0   8   0   0   0  10 94 93 91 63 57 52 50 44 41 40 
   5   0   0   3   0   0   0   0   0   0   0  10   0   0   0   0   0   0   0   0   0   0   7   0   0   0   9   0   0   0   0  14 98 97 96 92 89 75 74 73 70 69 66 63 44 36 
   2   0   0   0  10   0   3   0   0   5   0   5   0   0   0   0   0   0   0   0   3   5   0   4   0   0   0   0   0   0   0  12 99 97 86 71 68 63 62 58 57 43 38 37 
   4   0   0   0   0   0   0   4   0   0   0   0   0   0   0   0   0   0   0   0   0   0   0   0   0   0   0   0   0   9   0  17 101 97 96 95 94 93 91 90 88 75 74 70 65 58 55 50 40 
   4   0   0   0   0   0   0   0   0   0   0   0   0   0   0   0   0   0   0   0   0   0   0   0   0   0   0   0   0   0   0  15 97 96 94 93 90 87 85 73 71 68 62 60 58 55 38 
   6   0   0   0   0   0   6   0   0   0   0   0   0   0   0   0   0   0   0   0   0   0   0   0   0   0   0   0   0   0   0  11 98 97 95 92 71 70 68 56 55 52 46 
   2   0   0   0   0   0   4   0   0   0   0   0   0   0   0   0   0   0   4   0   0   0   8   0   0   0   0   3   0   0   0  13 98 96 95 92 91 88 72 71 70 64 58 55 46 
   8   0   0   8   0   0   0   0   5   0   0   0   0   0   7   0   6   0   0   0   6   0   0   0   0   0   5   0   0   0   0  11 101 97 71 69 67 65 62 61 54 52 48 
   5   0   0   0   0   0   0   0   8   0   0   0   0   0   0   0   5   6   0   0   0   0   0   7   0   0   0   0   5   0   0  13 100 96 93 92 91 90 88 87 75 74 70 55 40 
  10   0   0   0   2   0   0   0   0   0   0   0   0   0   0   0   0   6   0   0   0   0   0   0   7   0   0   4   7   0   0  22 100 99 96 94 93 92 90 89 88 87 86 84 83 82 81 72 71 70 67 63 62 61 
  10   0   0   0   0   0   6   0   0   0   0   0   0   0   0   0   0   5   0   0   0   9   3   0   0   0   0   0   7   0   4  13 97 95 92 91 88 87 77 71 68 67 64 62 46 
   3   0   0   0   0   0   3   0   0   0   0   0   0   0   0   0   7   0   0   0   0   0   0   0   0   0   0   0   0   0   7  15 97 94 93 90 89 88 85 83 72 70 69 68 62 57 55 
   4   0   0   0   0   0   0   0   0   0   5   0   0   7   0   0   0   0   0   0   0   0   0   0   4   0   0   8   0   0   0  14 100 93 91 89 88 80 75 70 68 64 63 62 58 55 
  10   0   0   0   0   0   0   0   0   4   9   0   0   0   0   2   0   8   0   0   0   0   0   0   0   0   0   5   0   2   0  14 101 95 94 90 87 86 84 83 80 69 67 65 62 54 
   6   0   0   0   0   0   0   0   5   0   0   0   0   0   0   0   0   0   0   5   0   0   0   5   5   5   0   0   0   0   0  19 101 100 99 97 95 91 89 88 86 83 82 81 80 79 71 70 69 66 65 
   3   0   0   0  10   0   0   0   0   0   0   0   0   0   0   0   0   0   0   0   0   0  10   0   0   0   0   9   5   0   6  15 96 94 92 87 86 85 83 82 81 72 69 66 62 61 59 
   6   0   0   0   0   0   0   0   0   0   0   0   0   0   8   0   0   0   0   0  10   0   8   0   0   0   0   0   0   7   0  16 100 98 95 94 93 88 86 84 83 81 80 71 70 68 67 63 
   9   0   0   0   0   0   4   0   0   0   0   0   0   0  10   0   0   0   6   0   0   0   5   0   0   0   0   0   0   0   5  15 96 90 88 87 85 84 83 79 74 72 71 69 68 67 57 
   7   0   0   0   0   0   0   0   0   0   0   0   0   0   0   0   0   0   0   0   0   0   0   0   0   0   7   0   0   0   0  12 93 91 89 87 83 82 81 80 78 73 63 55 
   9   0   0   0   5   0   0   5   0   0   0   0   0   6   0   0   0   8   0   0   0   0   7   0   0   0   0   0   0   0   0  12 99 95 92 87 86 85 84 72 69 68 66 62 
  10   0   0   0   0   0   0   0   0   0   0   0   0   6   0   0   0   0   0   0   0   6   0   0   0   0   0   0   0   8   0   9 101 94 93 87 86 84 80 67 54 
   2   0   9   6   0   8   0   0   0   0   0   0   0   0   4   3   8   0   0   0   0   0   0   0   0   0   0   0   0   0   0  14 93 90 89 88 87 84 83 82 81 80 79 73 69 67 
   9   0   0   0   0   0   0   7   0   0   0   0   0   0   0   0   0   0  10   0   0   0   0   5   0   0   0   0   0   0   0  12 98 95 91 88 83 82 81 79 77 72 69 66 
  10   0   0   0   0   0   0  10   0   0   0   1   7   0   0   0   0   0   0   0   4   0   0   0   0   0   0   0   0   0   0  11 97 88 87 85 84 80 77 74 69 67 64 
   9   0   0   6   0   0   0   0   0   0   0   0   0   8   0   0   0   0   0   0   0   0   0   0   0   5   0   0   0   0   3  10 99 85 84 83 79 72 71 68 66 61 
   9  10   0   0   0   5   0   0   0   0   5   0   0   0   0   0   0   0   0   4   0   0   7   0   0   9   0   0   0   0   0   9 96 89 87 85 80 78 70 62 55 
   4   0   0   0   0   0   0   0   0   0   0   0   0   0   0   0   0   0   0   3   0   0   0   0   0   0   0   0   0   8   0  12 100 99 94 89 86 84 83 82 80 71 67 61 
   3   0   0   0   5   0   0   0   0   0  10   0   0   7   0   0   0   0   0   0   0   0   3   0   0   0   0   0   0   0   0  11 96 91 90 88 85 81 80 79 78 76 70 
   1   0   0   7   0   0   0   0   9   8   0  10   0   0  10   0   0   0   0   0   0   0   8   0   0   0   8   0   0   0   0   8 95 90 87 79 77 72 67 64 
   4   0   0   0   0   0   0   0   0   0   0   0   0   0   0   7   0   0   0   0   6   0   0   0   3   0   0   0   5   0   0  10 92 89 86 84 81 80 79 78 77 67 
   1   0   0   0   0   0  10   5   0   0   0  10   0   0   0   0   0   0   9   0   0   0   0   0   0   0   0   0   0   7   0   8 94 90 89 84 81 80 69 63 
   6   0   0   0   5   0   0   0   0   0   8   0   0   0   0   0   0   0   0   0   0   8   0   0   0   0   0   0   6   0   0   6 87 83 68 67 63 61 
   5   0   0   0   0   0   0   6   0   0   0   9   0   0   0   0   0   0   0   0   0   0   6   0   0   7   0   0   0   0   0   9 93 92 87 86 83 82 81 76 70 
   2   0   0   0   0   0   6   0   0   0   4   6   8   0   0   0   0   0   0   0   0   7   0   0   7   0   0   0   0   0   0   8 92 89 84 83 80 78 77 62 
   8   0   0   0   0   0   0   0   0   0   0   0   0   0   0   0   0   0   0   0   0   0   0   0   0   0   0   0   0   0   0   9 92 87 86 84 83 82 79 78 76 
  10   0   0   0   0   0   0   0   2   0   0   0   0   0   0   3   0   7   0   0   0   0   0   0   0   0   0   0   0   0   0   9 97 93 91 89 85 84 82 77 76 
   6   4   0   0   0   0   0   0   0   0   0   0   0   0   0   5   0   0   6   0   0   0   0  10   0   0   0   0   0   0  10   7 90 88 87 84 80 76 64 
   5   7   0   0   0   0   0   0   0   0   0   0   0   4   0   0  10   4   0   0   0   0   0   0   0   7   0   8   0   0   0   7 91 87 84 81 77 71 67 
   2   0   0   0   0   0   0   0  10  10   0   0   0   0   0   0   0   0   4   0   0   0   0   0   0   0   0   0   0  10   0   7 91 88 85 81 79 77 68 
  10   0   0   0   0   0   0  10   0   0   0   0   7   2   2  10   0   0   0   0   0   0   4   0   0   0   0   0   0   0   0   4 86 84 67 61 
   2   0   0   0   0   0   0   0   0   0   0   0   5   0   0   0   0   0   0   0   0   8   0   0   4   0   7   0   6   0   0   5 89 81 78 77 76 
   2   0   0   0   0   0   0   0   0   0   0   4   0   0   0   0   0   0   0   0   0   0   0   4   0   0   0   0   4   0   0   4 82 81 77 76 
   4   0   0   0   0   0   0   0   0   4   0   0   0   6   0   0   0   0   0   0   5   0   0   0   0   0   0   0   0   0   0   4 83 82 78 76 
   5   0   0   9   0   6   0   4   0   0   0   0   0   0   0   0   0   0   0   5   9   0   0   0   8   0   0   6   0   0   0   4 90 89 77 76 
  10   0   0   0   0   0   0   0   0   0   0   0   0   0   0   0   0   0   0   0   0   0   0   0   0   7   0   0   0   0   9   3 92 81 77 
   4   0   0   0   0   0   0   0   0   0   0   0   0   0   0   0   0   0   0   0   0   0   0   0   0   0   0   0   0   5   0   2 77 76 
   4   0   0   0   0   0   0   0   0   0   0   0   0   0   0   0   0   0   0   0   4   0   0   0   0   0   0   7   0   0   0   2 79 76 
   3   0   0   0   0   0   0   0   0   0   0   0   7   0   0   0   0   0   0   0   0   0   0   0   0   0   0   0   5   7   0   2 85 79 
   4   0   0   0   0   0   0   0   0   0   0   0   0   0   0   0   5   0   9   0   0   0   7   0   0   0   0   0   0   0   0   2 83 81 
   1   0   0   3   0   0   8   0   0   0   0   4   0   0   0   0   0   6   0   0   0   0   6   5   0   0   0   0   0   0   0   2 78 76 
   1   0   5   0   0   0   0   0   0   0   0   0   0   8   0   0   0   0   0  10   0   0   4   0   0   0   0   0   0   0   0   1 67 
   3   0   0   0   0   0   0   5   0   0   0   0   6   0   8   0   0   0   0   0   0   0   8   0   0   0   0   0   0   4   0   1 76 
   8   0   0   0   4   0   0   0   0   0   0   0   0   8   0   0   0   5   0   0   0   0   0   0   0   0   0   0   0   0   0   1 82 
   4   6   0   6  10   0   0   0   0   0   0   0   0   0   5   0   0   0   9   0   0   0   0   0   0  10   0   0   0   0   0   1 78 
   7   0   0   0   0   0   0   0   0   0   0   0   0   0   0   0   0   0   0   0   0   0   0   0   0   0   0   0   0   0   0   1 77 
   5   0   0   0  10   0   0   0   0   0   0   0   0   0   0   0   0   2   0   0   0   0   0   0   0   0   0   0   0   0   6   1 78 
  10   0   0   0   0   0   0   6   0   0   0   0   6   0   0   0   0   0   0   0   0   0   0   0   6   0   0   0   0   0   0   1 80 
   9   0   0   0   0   0   0   0   0   0   0   0   0   0   0   0   0   7   0   0   0   0   6   0   0   0   0   0   0   2   0   1 77 
  10   0   0   5   0   0   0   0   0   0   0   0   0   0   0   0   0   0   0   0   5   3   0   0   0   8   0   0   9   0   0   1 86 
   4   0   0   0   0   0   0   5   0   0   0   0   0   0   0   8   0   0   0   5   0   0   0   0   0   0   0   0   0   0   0   1 77 
   1   0   0   0   0   0   0   0   0   0   0   0   0   0   0   0   6   8   0   0   0   0   0   0   0   0   0   9   0   0   7   1 102
   2   0   4   0   0   0   0   0  10   0   0   0   0   0   0   0   0   0   0   0   7   0   6   0   0   0   0   0   0   0   0   1 102
   9   0   0   9   3   0   0   0   0   0   0   0   0   0   0   0   0   5   5   0   0   0   0   5   0   0   0   0   5   0   3   1 102
   4   9   0   0   0   0   0   4   6   0   0   0   0   0   6   0   3   0   4   0   0   0   0   9   0   0   0   0   0   0   0   1 102
   7   0   0   0   0   0   0   0   0   0   0   0   0   0   0   0   0   7   0   0   0   8   0   0   0   0   0   0   6   0   0   1 102
   9   0   0   0   0   0   0   0   0   0   0   0   0   0   3   0   0   0   0   0   0   0   0   0   0   0   7   0   0   0   0   1 102
   7   0   0   0   0   0   0   0   0   8   7   0   0   0   0   0   0   0   0   0   0   3   0   0   0   0   0   0   0   0   0   1 102
   8   0   0   0   0   0  10   0   0   0   0   0   0   9   0   0   0   0   5   0   0   0   0   0   0   0   0   0   0   0   0   1 102
   8   0   0   0   0   0   6   0   0   0   0   0   4   0   8  10   0   0   5   0   0   0   0   5   0   0   0   0   0   0   0   1 102
   8   0   0   0   0   0   0   0   0   0   0   0   0   0   0   0   0   0   0   0   0   0   0   0  10   0   9   0   0   0   0   1 102
   4   0   0   0   0   0   0   0   0   0   0   0   0   0   0   0   0   8   5   0   7   0   6   0   0   0   0   0   0   0   0   1 102
   4   0   0  10   0   0   0   0   8   7   0   0   0   0   0   0   0   0   0   0   0   5   0   0   0   0   0   0   9   0   0   1 102
   2   0   0   6   0   0   0   0   0   0   5   0   9   0   0   0   0  10   0   0   0   0   0   0   0   0   0   0   0   0   0   1 102
   2   0   0   0   0   0   0   0   5   0   0   0   0   0   0   0   0   0   0   0   0   0   0   0   0   5   3   0   0   0   0   1 102
   1   0   0   0   0   4   0   0   0   0   0   0   0   0   0   0   0   0   6   0   0   7   0   0   0   0   0   0   0   7   0   1 102
   6   0   7   5   0   0   0   0   0   0   0   0   0   0   0   0   0   0   0   0   0   0   0   0   0   0   0   0   0   0   0   1 102
   6   0   0   5   0   5   0   0   0   0   0   0   0   0   0   0   0   0   0   0   0   4   0   0   7   0   0   0   0   0   0   1 102
   8   4  10   0   0   7   0   0   0   0   0   0   0   0   0   0   5   0   0   0   0   0   4   0   4   0   6   0   0   0   8   1 102
   4   6   4   0   0   0   0   0   3   0   0   0   0   0   0   0   5   0   0   0   0   0   8   0   0   0   0   6   0   0   0   1 102
   4   0   0   0   0   0   0   0   0   0   0   0   0   0   0   0   0   0   0  10   0  10   0   0   0   0   5   0   0   0   6   1 102
   6   0   0   0   2   0   0   7   3   0   0   7   0   0   7   0   0   0   0   0   0   0   0   0   0   0   0   0   0   0   0   1 102
   5   0   0   0   0   0   0   0   0   6   0   0   0   0   0   0   0   0   0   0   0   0   0   0   0   0   0   0   0   6   0   1 102
   9   0   0   0   0   0   0   0   0   0   0   0   0   0   0   0   0   0   0  10   0   0   0   0   8   0   0   3   0   0   0   1 102
   5   8   0   0   7   0   0   0   0   0   6   0   0   0   4   0   0   0   0   0   0   0   0   0   0   0   0   0   0   0   0   1 102
   3   0   0   0   0   0   0   0   0   0   0   0   0   6   0   0   0   0   0   0   0   0   0   0   0   0   0   0   0   0   0   1 102
   1   5   0   0   0   0   0   0   0   0   6   0   0   0   0   0   0   0   5   0   0   0   0   0   0   0   0   0   0   0   6   1 102
   0   0   0   0   0   0   0   0   0   0   0   0   0   0   0   0   0   0   0   0   0   0   0   0   0   0   0   0   0   0   0   0 
